NAME: mine6
TYPE: TSP
COMMENT: 6-Mine Unai Mendez Belles()
DIMENSION: 6
EDGE_WEIGHT_TYPE: GEO
EDGE_WEIGHT_FORMAT: FUNCTION 
DISPLAY_DATA_TYPE: COORD_DISPLAY
NODE_COORD_SECTION
   1  18.47       98.10
   2  19.47       93.44
   3  21.09       91.54
   4  23.39       92.37
   5  26.23       96.24
   6  23.00       95.05
EOF
